(declare-const |phi___VERIFIER_assert__cond___137:737:2163:2476| Int)
(declare-const __VERIFIER_assert__cond___127 Int)
(declare-const __VERIFIER_assert__cond___23 Int)
(declare-const __VERIFIER_assert__cond___60 Int)
(declare-const |phi___VERIFIER_assert__cond___56:924:1070:2254| Int)
(declare-const |phi___VERIFIER_assert__cond___122:700:2065:2378| Int)
(declare-const |K:623:624:720:2139:2452| Int)
(declare-const |phi___VERIFIER_assert__cond___94:854:1137:2321| Int)
(declare-const __VERIFIER_assert__cond___92 Int)
(declare-const |phi___VERIFIER_assert__cond___26:986:1011:2195| Int)
(declare-const |phi_main__j:932:1062:2246| Int)
(declare-const |phi___VERIFIER_assert__cond___61:919:1075:2259| Int)
(declare-const __VERIFIER_assert__cond___125 Int)
(declare-const __VERIFIER_assert__cond___130 Int)
(declare-const havoc Int)
(declare-const |main__i':616:763:2182:2495| Int)
(declare-const __VERIFIER_assert__cond___121 Int)
(declare-const |phi_main__j:998:999:2183| Int)
(declare-const |phi___VERIFIER_assert__cond___131:691:2074:2387| Int)
(declare-const |phi___VERIFIER_assert__cond___52:928:1066:2250| Int)
(declare-const |phi___VERIFIER_assert__cond___22:990:1007:2191| Int)
(declare-const |phi___VERIFIER_assert__cond___120:702:2063:2376| Int)
(declare-const __VERIFIER_assert__cond___123 Int)
(declare-const __VERIFIER_assert__cond___93 Int)
(declare-const |phi___VERIFIER_assert__cond___122:751:2149:2462| Int)
(declare-const |phi___VERIFIER_assert__cond___60:920:1074:2258| Int)
(declare-const |phi___VERIFIER_assert__cond___59:921:1073:2257| Int)
(declare-const __VERIFIER_assert__cond___90 Int)
(declare-const |phi_main__j:706:2059:2372| Int)
(declare-const |phi___VERIFIER_assert__cond___126:747:2153:2466| Int)
(declare-const __VERIFIER_assert__cond___50 Int)
(declare-const |phi___VERIFIER_assert__cond___145:729:2171:2484| Int)
(declare-const |phi___VERIFIER_assert__cond___25:987:1010:2194| Int)
(declare-const __VERIFIER_assert__cond___56 Int)
(declare-const |phi___VERIFIER_assert__cond___149:725:2175:2488| Int)
(declare-const |phi___VERIFIER_assert__cond___120:753:2147:2460| Int)
(declare-const __VERIFIER_assert__cond___88 Int)
(declare-const |phi___VERIFIER_assert__cond___142:732:2168:2481| Int)
(declare-const __VERIFIER_assert__cond___17 Int)
(declare-const __VERIFIER_assert__cond___52 Int)
(declare-const |phi___VERIFIER_assert__cond___85:863:1128:2312| Int)
(declare-const |phi___VERIFIER_assert__cond___124:749:2151:2464| Int)
(declare-const |phi___VERIFIER_assert__cond___27:985:1012:2196| Int)
(declare-const |phi___VERIFIER_assert__cond___21:991:1006:2190| Int)
(declare-const |phi___VERIFIER_assert__cond___130:692:2073:2386| Int)
(declare-const |phi___VERIFIER_assert__cond___140:734:2166:2479| Int)
(declare-const __VERIFIER_assert__cond___89 Int)
(declare-const __VERIFIER_assert__cond___19 Int)
(declare-const __VERIFIER_assert__cond___58 Int)
(declare-const |phi___VERIFIER_assert__cond___86:862:1129:2313| Int)
(declare-const |phi___VERIFIER_assert__cond___125:748:2152:2465| Int)
(declare-const |phi___VERIFIER_assert__cond___58:922:1072:2256| Int)
(declare-const |phi___VERIFIER_assert__cond___129:744:2156:2469| Int)
(declare-const __VERIFIER_assert__cond___18 Int)
(declare-const |phi___VERIFIER_assert__cond___150:724:2176:2489| Int)
(declare-const __VERIFIER_assert__cond___24 Int)
(declare-const __VERIFIER_assert__cond___91 Int)
(declare-const |phi___VERIFIER_assert__cond___136:738:2162:2475| Int)
(declare-const __VERIFIER_assert__cond___21 Int)
(declare-const |phi___VERIFIER_assert__cond___126:696:2069:2382| Int)
(declare-const __VERIFIER_assert__cond___117 Int)
(declare-const |phi___VERIFIER_assert__cond___89:859:1132:2316| Int)
(declare-const |phi___VERIFIER_assert__cond___17:995:1002:2186| Int)
(declare-const __VERIFIER_assert__cond___61 Int)
(declare-const |phi___VERIFIER_assert__cond___92:856:1135:2319| Int)
(declare-const |phi___VERIFIER_assert__cond___50:930:1064:2248| Int)
(declare-const |phi___VERIFIER_assert__cond___121:701:2064:2377| Int)
(declare-const __VERIFIER_assert__cond___85 Int)
(declare-const |phi___VERIFIER_assert__cond___96:852:1139:2323| Int)
(declare-const |phi___VERIFIER_assert__cond___127:746:2154:2467| Int)
(declare-const __VERIFIER_assert__cond___87 Int)
(declare-const __VERIFIER_assert__cond___122 Int)
(declare-const __VERIFIER_assert__cond___20 Int)
(declare-const |phi___VERIFIER_assert__cond___135:739:2161:2474| Int)
(declare-const __VERIFIER_assert__cond___28 Int)
(declare-const __VERIFIER_assert__cond___131 Int)
(declare-const |phi___VERIFIER_assert__cond___123:699:2066:2379| Int)
(declare-const |phi___VERIFIER_assert__cond___93:855:1136:2320| Int)
(declare-const __VERIFIER_assert__cond___53 Int)
(declare-const __VERIFIER_assert__cond___134 Int)
(declare-const |phi___VERIFIER_assert__cond___87:861:1130:2314| Int)
(declare-const |phi___VERIFIER_assert__cond___90:858:1133:2317| Int)
(declare-const |phi___VERIFIER_assert__cond___24:988:1009:2193| Int)
(declare-const __VERIFIER_assert__cond___83 Int)
(declare-const |phi___VERIFIER_assert__cond___117:756:2144:2457| Int)
(declare-const |main__j':617:625:721:2140:2453| Int)
(declare-const |phi___VERIFIER_assert__cond___95:853:1138:2322| Int)
(declare-const __VERIFIER_assert__cond___86 Int)
(declare-const |phi___VERIFIER_assert__cond___55:925:1069:2253| Int)
(declare-const __VERIFIER_assert__cond___22 Int)
(declare-const |phi___VERIFIER_assert__cond___128:694:2071:2384| Int)
(declare-const |phi___VERIFIER_assert__cond___19:993:1004:2188| Int)
(declare-const |phi___VERIFIER_assert__cond___15:997:1000:2184| Int)
(declare-const |__VERIFIER_assert__cond___134':710:761:2180:2493| Int)
(declare-const |phi___VERIFIER_assert__cond___143:731:2169:2482| Int)
(declare-const |phi___VERIFIER_assert__cond___121:752:2148:2461| Int)
(declare-const __VERIFIER_assert__cond___26 Int)
(declare-const |phi_main__i:758:2142:2455| Int)
(declare-const |phi___VERIFIER_assert__cond___23:989:1008:2192| Int)
(declare-const |phi_main__j:757:2143:2456| Int)
(declare-const __VERIFIER_assert__cond___54 Int)
(declare-const __VERIFIER_assert__cond___120 Int)
(declare-const |phi___VERIFIER_assert__cond___54:926:1068:2252| Int)
(declare-const __VERIFIER_assert__cond___133 Int)
(declare-const |phi___VERIFIER_assert__cond___133:740:2160:2473| Int)
(declare-const |phi___VERIFIER_assert__cond___18:994:1003:2187| Int)
(declare-const __VERIFIER_assert__cond___132 Int)
(declare-const __VERIFIER_assert__cond___49 Int)
(declare-const |phi___VERIFIER_assert__cond___129:693:2072:2385| Int)
(declare-const |phi___VERIFIER_assert__cond___124:698:2067:2380| Int)
(declare-const |phi___VERIFIER_assert__cond___28:984:1013:2197| Int)
(declare-const |phi___VERIFIER_assert__cond___141:733:2167:2480| Int)
(declare-const |phi___VERIFIER_assert__cond___118:755:2145:2458| Int)
(declare-const |__VERIFIER_assert__cond___135':711:760:2179:2492| Int)
(declare-const |phi___VERIFIER_assert__cond___117:705:2060:2373| Int)
(declare-const |phi___VERIFIER_assert__cond___119:703:2062:2375| Int)
(declare-const __VERIFIER_assert__cond___124 Int)
(declare-const |phi___VERIFIER_assert__cond___118:704:2061:2374| Int)
(declare-const |main__i':616:626:722:2141:2454| Int)
(declare-const __VERIFIER_assert__cond___55 Int)
(declare-const |phi___VERIFIER_assert__cond___147:727:2173:2486| Int)
(declare-const __VERIFIER_assert__cond___27 Int)
(declare-const |phi___VERIFIER_assert__cond___131:742:2158:2471| Int)
(declare-const __VERIFIER_assert__cond___126 Int)
(declare-const |phi___VERIFIER_assert__cond___84:864:1127:2311| Int)
(declare-const |phi___VERIFIER_assert__cond___20:992:1005:2189| Int)
(declare-const __VERIFIER_assert__cond___96 Int)
(declare-const __VERIFIER_assert__cond___59 Int)
(declare-const |K:719:759:2178:2491| Int)
(declare-const __VERIFIER_assert__cond___51 Int)
(declare-const |phi___VERIFIER_assert__cond___119:754:2146:2459| Int)
(declare-const |phi___VERIFIER_assert__cond___49:931:1063:2247| Int)
(declare-const |phi___VERIFIER_assert__cond___123:750:2150:2463| Int)
(declare-const __VERIFIER_assert__cond___25 Int)
(declare-const |phi___VERIFIER_assert__cond___57:923:1071:2255| Int)
(declare-const |phi___VERIFIER_assert__cond___16:996:1001:2185| Int)
(declare-const |phi___VERIFIER_assert__cond___62:918:1076:2260| Int)
(declare-const __VERIFIER_assert__cond___119 Int)
(declare-const |phi___VERIFIER_assert__cond___146:728:2172:2485| Int)
(declare-const __VERIFIER_assert__cond___16 Int)
(declare-const |phi_main__j:866:1125:2309| Int)
(declare-const |phi___VERIFIER_assert__cond___127:695:2070:2383| Int)
(declare-const __VERIFIER_assert__cond___129 Int)
(declare-const |phi___VERIFIER_assert__cond___83:865:1126:2310| Int)
(declare-const |phi___VERIFIER_assert__cond___128:745:2155:2468| Int)
(declare-const __VERIFIER_assert__cond___84 Int)
(declare-const __VERIFIER_assert__cond___57 Int)
(declare-const |phi___VERIFIER_assert__cond___144:730:2170:2483| Int)
(declare-const |phi___VERIFIER_assert__cond___88:860:1131:2315| Int)
(declare-const |phi___VERIFIER_assert__cond___132:741:2159:2472| Int)
(declare-const |phi___VERIFIER_assert__cond___125:697:2068:2381| Int)
(declare-const __VERIFIER_assert__cond___94 Int)
(declare-const __VERIFIER_assert__cond___15 Int)
(declare-const |phi___VERIFIER_assert__cond___151:723:2177:2490| Int)
(declare-const |phi___VERIFIER_assert__cond___132:690:2075:2388| Int)
(declare-const |phi___VERIFIER_assert__cond___148:726:2174:2487| Int)
(declare-const __VERIFIER_assert__cond___95 Int)
(declare-const __VERIFIER_assert__cond___118 Int)
(declare-const __VERIFIER_assert__cond___128 Int)
(declare-const |phi___VERIFIER_assert__cond___91:857:1134:2318| Int)
(declare-const |phi___VERIFIER_assert__cond___53:927:1067:2251| Int)
(declare-const |phi___VERIFIER_assert__cond___138:736:2164:2477| Int)
(declare-const |phi___VERIFIER_assert__cond___130:743:2157:2470| Int)
(declare-const |phi___VERIFIER_assert__cond___51:929:1065:2249| Int)
(declare-const |phi___VERIFIER_assert__cond___139:735:2165:2478| Int)
(declare-const __VERIFIER_assert__cond___62 Int)
(declare-const |main__j':617:762:2181:2494| Int)
(assert (and (< (- havoc) 0) (not (= (ite (<= (+ (- havoc) 1) 0) 1 0) 0))
               (not (= (ite (<= (+ (- havoc) 1) 0) 1 0) 0))
               (not (= (ite (<= (+ (- havoc) 1) 0) 1 0) 0))
               (not (= (ite (<= (+ (- havoc) 1) 0) 1 0) 0))
               (not (= (ite (<= (+ (- havoc) 1) 0) 1 0) 0))
               (not (= (ite (<= (+ (- havoc) 1) 0) 1 0) 0))
               (not (= (ite (<= (+ (- havoc) 1) 0) 1 0) 0))
               (not (= (ite (<= (+ (- havoc) 1) 0) 1 0) 0))
               (= (+ (- |phi_main__j:998:999:2183|) 8) 0)
               (= (+ (- |phi___VERIFIER_assert__cond___15:997:1000:2184|)
                       __VERIFIER_assert__cond___15) 0)
               (= (+ (- |phi___VERIFIER_assert__cond___16:996:1001:2185|)
                       __VERIFIER_assert__cond___16) 0)
               (= (+ (- |phi___VERIFIER_assert__cond___17:995:1002:2186|)
                       __VERIFIER_assert__cond___17) 0)
               (= (+ (- |phi___VERIFIER_assert__cond___18:994:1003:2187|)
                       __VERIFIER_assert__cond___18) 0)
               (= (+ (- |phi___VERIFIER_assert__cond___19:993:1004:2188|)
                       __VERIFIER_assert__cond___19) 0)
               (= (+ (- |phi___VERIFIER_assert__cond___20:992:1005:2189|)
                       __VERIFIER_assert__cond___20) 0)
               (= (+ (- |phi___VERIFIER_assert__cond___21:991:1006:2190|)
                       __VERIFIER_assert__cond___21) 0)
               (= (+ (- |phi___VERIFIER_assert__cond___22:990:1007:2191|)
                       __VERIFIER_assert__cond___22) 0)
               (= (+ (- |phi___VERIFIER_assert__cond___23:989:1008:2192|)
                       __VERIFIER_assert__cond___23) 0)
               (= (+ (- |phi___VERIFIER_assert__cond___24:988:1009:2193|)
                       __VERIFIER_assert__cond___24) 0)
               (= (+ (- |phi___VERIFIER_assert__cond___25:987:1010:2194|)
                       __VERIFIER_assert__cond___25) 0)
               (= (+ (- |phi___VERIFIER_assert__cond___26:986:1011:2195|)
                       __VERIFIER_assert__cond___26) 0)
               (= (+ (- |phi___VERIFIER_assert__cond___27:985:1012:2196|)
                       __VERIFIER_assert__cond___27) 0)
               (= (+ (- |phi___VERIFIER_assert__cond___28:984:1013:2197|)
                       __VERIFIER_assert__cond___28) 0) (< (+ (- havoc) 1) 0)
               (not (= (ite (<= (+ (- havoc) 2) 0) 1 0) 0))
               (not (= (ite (<= (+ (- havoc) 2) 0) 1 0) 0))
               (not (= (ite (<= (+ (- havoc) 2) 0) 1 0) 0))
               (not (= (ite (<= (+ (- havoc) 2) 0) 1 0) 0))
               (not (= (ite (<= (+ (- havoc) 2) 0) 1 0) 0))
               (not (= (ite (<= (+ (- havoc) 2) 0) 1 0) 0))
               (not (= (ite (<= (+ (- havoc) 2) 0) 1 0) 0))
               (not (= (ite (<= (+ (- havoc) 2) 0) 1 0) 0))
               (= (+ (- |phi_main__j:932:1062:2246|) 8) 0)
               (= (+ (- |phi___VERIFIER_assert__cond___49:931:1063:2247|)
                       __VERIFIER_assert__cond___49) 0)
               (= (+ (- |phi___VERIFIER_assert__cond___50:930:1064:2248|)
                       __VERIFIER_assert__cond___50) 0)
               (= (+ (- |phi___VERIFIER_assert__cond___51:929:1065:2249|)
                       __VERIFIER_assert__cond___51) 0)
               (= (+ (- |phi___VERIFIER_assert__cond___52:928:1066:2250|)
                       __VERIFIER_assert__cond___52) 0)
               (= (+ (- |phi___VERIFIER_assert__cond___53:927:1067:2251|)
                       __VERIFIER_assert__cond___53) 0)
               (= (+ (- |phi___VERIFIER_assert__cond___54:926:1068:2252|)
                       __VERIFIER_assert__cond___54) 0)
               (= (+ (- |phi___VERIFIER_assert__cond___55:925:1069:2253|)
                       __VERIFIER_assert__cond___55) 0)
               (= (+ (- |phi___VERIFIER_assert__cond___56:924:1070:2254|)
                       __VERIFIER_assert__cond___56) 0)
               (= (+ (- |phi___VERIFIER_assert__cond___57:923:1071:2255|)
                       __VERIFIER_assert__cond___57) 0)
               (= (+ (- |phi___VERIFIER_assert__cond___58:922:1072:2256|)
                       __VERIFIER_assert__cond___58) 0)
               (= (+ (- |phi___VERIFIER_assert__cond___59:921:1073:2257|)
                       __VERIFIER_assert__cond___59) 0)
               (= (+ (- |phi___VERIFIER_assert__cond___60:920:1074:2258|)
                       __VERIFIER_assert__cond___60) 0)
               (= (+ (- |phi___VERIFIER_assert__cond___61:919:1075:2259|)
                       __VERIFIER_assert__cond___61) 0)
               (= (+ (- |phi___VERIFIER_assert__cond___62:918:1076:2260|)
                       __VERIFIER_assert__cond___62) 0) (< (+ (- havoc) 2) 0)
               (not (= (ite (<= (+ (- havoc) 3) 0) 1 0) 0))
               (not (= (ite (<= (+ (- havoc) 3) 0) 1 0) 0))
               (not (= (ite (<= (+ (- havoc) 3) 0) 1 0) 0))
               (not (= (ite (<= (+ (- havoc) 3) 0) 1 0) 0))
               (not (= (ite (<= (+ (- havoc) 3) 0) 1 0) 0))
               (not (= (ite (<= (+ (- havoc) 3) 0) 1 0) 0))
               (not (= (ite (<= (+ (- havoc) 3) 0) 1 0) 0))
               (not (= (ite (<= (+ (- havoc) 3) 0) 1 0) 0))
               (= (+ (- |phi_main__j:866:1125:2309|) 8) 0)
               (= (+ (- |phi___VERIFIER_assert__cond___83:865:1126:2310|)
                       __VERIFIER_assert__cond___83) 0)
               (= (+ (- |phi___VERIFIER_assert__cond___84:864:1127:2311|)
                       __VERIFIER_assert__cond___84) 0)
               (= (+ (- |phi___VERIFIER_assert__cond___85:863:1128:2312|)
                       __VERIFIER_assert__cond___85) 0)
               (= (+ (- |phi___VERIFIER_assert__cond___86:862:1129:2313|)
                       __VERIFIER_assert__cond___86) 0)
               (= (+ (- |phi___VERIFIER_assert__cond___87:861:1130:2314|)
                       __VERIFIER_assert__cond___87) 0)
               (= (+ (- |phi___VERIFIER_assert__cond___88:860:1131:2315|)
                       __VERIFIER_assert__cond___88) 0)
               (= (+ (- |phi___VERIFIER_assert__cond___89:859:1132:2316|)
                       __VERIFIER_assert__cond___89) 0)
               (= (+ (- |phi___VERIFIER_assert__cond___90:858:1133:2317|)
                       __VERIFIER_assert__cond___90) 0)
               (= (+ (- |phi___VERIFIER_assert__cond___91:857:1134:2318|)
                       __VERIFIER_assert__cond___91) 0)
               (= (+ (- |phi___VERIFIER_assert__cond___92:856:1135:2319|)
                       __VERIFIER_assert__cond___92) 0)
               (= (+ (- |phi___VERIFIER_assert__cond___93:855:1136:2320|)
                       __VERIFIER_assert__cond___93) 0)
               (= (+ (- |phi___VERIFIER_assert__cond___94:854:1137:2321|)
                       __VERIFIER_assert__cond___94) 0)
               (= (+ (- |phi___VERIFIER_assert__cond___95:853:1138:2322|)
                       __VERIFIER_assert__cond___95) 0)
               (= (+ (- |phi___VERIFIER_assert__cond___96:852:1139:2323|)
                       __VERIFIER_assert__cond___96) 0) (< (+ (- havoc) 3) 0)
               (not (= (ite (<= (+ (- havoc) 4) 0) 1 0) 0))
               (not (= (ite (<= (+ (- havoc) 4) 0) 1 0) 0))
               (not (= (ite (<= (+ (- havoc) 4) 0) 1 0) 0))
               (not (= (ite (<= (+ (- havoc) 4) 0) 1 0) 0))
               (not (= (ite (<= (+ (- havoc) 4) 0) 1 0) 0))
               (not (= (ite (<= (+ (- havoc) 4) 0) 1 0) 0))
               (not (= (ite (<= (+ (- havoc) 4) 0) 1 0) 0))
               (not (= (ite (<= (+ (- havoc) 4) 0) 1 0) 0))
               (= (+ (- |phi_main__j:706:2059:2372|) 8) 0)
               (= (+ (- |phi___VERIFIER_assert__cond___117:705:2060:2373|)
                       __VERIFIER_assert__cond___117) 0)
               (= (+ (- |phi___VERIFIER_assert__cond___118:704:2061:2374|)
                       __VERIFIER_assert__cond___118) 0)
               (= (+ (- |phi___VERIFIER_assert__cond___119:703:2062:2375|)
                       __VERIFIER_assert__cond___119) 0)
               (= (+ (- |phi___VERIFIER_assert__cond___120:702:2063:2376|)
                       __VERIFIER_assert__cond___120) 0)
               (= (+ (- |phi___VERIFIER_assert__cond___121:701:2064:2377|)
                       __VERIFIER_assert__cond___121) 0)
               (= (+ (- |phi___VERIFIER_assert__cond___122:700:2065:2378|)
                       __VERIFIER_assert__cond___122) 0)
               (= (+ (- |phi___VERIFIER_assert__cond___123:699:2066:2379|)
                       __VERIFIER_assert__cond___123) 0)
               (= (+ (- |phi___VERIFIER_assert__cond___124:698:2067:2380|)
                       __VERIFIER_assert__cond___124) 0)
               (= (+ (- |phi___VERIFIER_assert__cond___125:697:2068:2381|)
                       __VERIFIER_assert__cond___125) 0)
               (= (+ (- |phi___VERIFIER_assert__cond___126:696:2069:2382|)
                       __VERIFIER_assert__cond___126) 0)
               (= (+ (- |phi___VERIFIER_assert__cond___127:695:2070:2383|)
                       __VERIFIER_assert__cond___127) 0)
               (= (+ (- |phi___VERIFIER_assert__cond___128:694:2071:2384|)
                       __VERIFIER_assert__cond___128) 0)
               (= (+ (- |phi___VERIFIER_assert__cond___129:693:2072:2385|)
                       __VERIFIER_assert__cond___129) 0)
               (= (+ (- |phi___VERIFIER_assert__cond___130:692:2073:2386|)
                       __VERIFIER_assert__cond___130) 0)
               (= (+ (- |phi___VERIFIER_assert__cond___131:691:2074:2387|)
                       __VERIFIER_assert__cond___131) 0)
               (= (+ (- |phi___VERIFIER_assert__cond___132:690:2075:2388|)
                       __VERIFIER_assert__cond___132) 0)
               (< (+ (- havoc) 4) 0)
               (not (= (ite (<= (+ (- havoc) 5) 0) 1 0) 0))
               (not (= (ite (<= (+ (- havoc) 5) 0) 1 0) 0))
               (not (= (ite (<= (+ (- havoc) 5) 0) 1 0) 0))
               (not (= (ite (<= (+ (- havoc) 5) 0) 1 0) 0))
               (not (= (ite (<= (+ (- havoc) 5) 0) 1 0) 0))
               (not (= (ite (<= (+ (- havoc) 5) 0) 1 0) 0))
               (not (= (ite (<= (+ (- havoc) 5) 0) 1 0) 0))
               (not (= (ite (<= (+ (- havoc) 5) 0) 1 0) 0))
               (or (not (and (<= (- |K:623:624:720:2139:2452|) 0)
                               (<= |K:623:624:720:2139:2452| 0)))
                     (= (+ |main__j':617:625:721:2140:2453| -8) 0))
               (or (not (<= (+ (- |K:623:624:720:2139:2452|) 1) 0))
                     (= |main__j':617:625:721:2140:2453| 0))
               (or (not (<= (- |K:623:624:720:2139:2452|) 0))
                     (= (+ |main__i':616:626:722:2141:2454|
                             (- |K:623:624:720:2139:2452|) -4) 0))
               (or (not (<= (- |K:623:624:720:2139:2452|) 0))
                     (<= (+ |main__j':617:625:721:2140:2453|
                              (* 8 |K:623:624:720:2139:2452|) -8) 0))
               (or (and (= |K:623:624:720:2139:2452| 0)
                          (= (+ (- |main__j':617:625:721:2140:2453|) 8) 0)
                          (= (+ (- |main__i':616:626:722:2141:2454|) 4) 0))
                     (and (<= (+ (- |K:623:624:720:2139:2452|) 1) 0)
                            (<= (+ (- havoc) 6) 0)
                            (= |main__j':617:625:721:2140:2453| 0)
                            (<= (+ |main__i':616:626:722:2141:2454| (- 
                                     havoc) 1) 0)
                            (<= (+ (- |main__i':616:626:722:2141:2454|) 2) 0)))
               (<= (- |K:623:624:720:2139:2452|) 0)
               (<= (- |main__j':617:625:721:2140:2453|) 0) (< (- havoc) 0)
               (< (- |main__i':616:626:722:2141:2454|) 0)
               (< (+ |main__j':617:625:721:2140:2453| -8) 0)
               (not (= (ite (<= (+ |main__i':616:626:722:2141:2454| (- 
                                     havoc) 1) 0)
                            1 0) 0))
               (= (+ (- |phi_main__i:758:2142:2455|)
                       |main__i':616:626:722:2141:2454|) 0)
               (= (+ (- |phi_main__j:757:2143:2456|)
                       |main__j':617:625:721:2140:2453|) 0)
               (= (+ (- |phi___VERIFIER_assert__cond___117:756:2144:2457|)
                       |phi___VERIFIER_assert__cond___117:705:2060:2373|) 0)
               (= (+ (- |phi___VERIFIER_assert__cond___118:755:2145:2458|)
                       |phi___VERIFIER_assert__cond___118:704:2061:2374|) 0)
               (= (+ (- |phi___VERIFIER_assert__cond___119:754:2146:2459|)
                       |phi___VERIFIER_assert__cond___119:703:2062:2375|) 0)
               (= (+ (- |phi___VERIFIER_assert__cond___120:753:2147:2460|)
                       |phi___VERIFIER_assert__cond___120:702:2063:2376|) 0)
               (= (+ (- |phi___VERIFIER_assert__cond___121:752:2148:2461|)
                       |phi___VERIFIER_assert__cond___121:701:2064:2377|) 0)
               (= (+ (- |phi___VERIFIER_assert__cond___122:751:2149:2462|)
                       |phi___VERIFIER_assert__cond___122:700:2065:2378|) 0)
               (= (+ (- |phi___VERIFIER_assert__cond___123:750:2150:2463|)
                       |phi___VERIFIER_assert__cond___123:699:2066:2379|) 0)
               (= (+ (- |phi___VERIFIER_assert__cond___124:749:2151:2464|)
                       |phi___VERIFIER_assert__cond___124:698:2067:2380|) 0)
               (= (+ (- |phi___VERIFIER_assert__cond___125:748:2152:2465|)
                       |phi___VERIFIER_assert__cond___125:697:2068:2381|) 0)
               (= (+ (- |phi___VERIFIER_assert__cond___126:747:2153:2466|)
                       |phi___VERIFIER_assert__cond___126:696:2069:2382|) 0)
               (= (+ (- |phi___VERIFIER_assert__cond___127:746:2154:2467|)
                       |phi___VERIFIER_assert__cond___127:695:2070:2383|) 0)
               (= (+ (- |phi___VERIFIER_assert__cond___128:745:2155:2468|)
                       |phi___VERIFIER_assert__cond___128:694:2071:2384|) 0)
               (= (+ (- |phi___VERIFIER_assert__cond___129:744:2156:2469|)
                       |phi___VERIFIER_assert__cond___129:693:2072:2385|) 0)
               (= (+ (- |phi___VERIFIER_assert__cond___130:743:2157:2470|)
                       |phi___VERIFIER_assert__cond___130:692:2073:2386|) 0)
               (= (+ (- |phi___VERIFIER_assert__cond___131:742:2158:2471|)
                       |phi___VERIFIER_assert__cond___131:691:2074:2387|) 0)
               (= (+ (- |phi___VERIFIER_assert__cond___132:741:2159:2472|)
                       |phi___VERIFIER_assert__cond___132:690:2075:2388|) 0)
               (= (+ (- |phi___VERIFIER_assert__cond___133:740:2160:2473|)
                       __VERIFIER_assert__cond___133) 0)
               (= (+ (- |phi___VERIFIER_assert__cond___135:739:2161:2474|)
                       (ite (<= (+ |main__i':616:626:722:2141:2454| (- 
                                     havoc) 1) 0)
                            1 0)) 0)
               (= (+ (- |phi___VERIFIER_assert__cond___136:738:2162:2475|)
                       (ite (<= (+ (- havoc) 5) 0) 1 0)) 0)
               (= (+ (- |phi___VERIFIER_assert__cond___137:737:2163:2476|) 1) 0)
               (= (+ (- |phi___VERIFIER_assert__cond___138:736:2164:2477|)
                       (ite (<= (+ (- havoc) 5) 0) 1 0)) 0)
               (= (+ (- |phi___VERIFIER_assert__cond___139:735:2165:2478|) 1) 0)
               (= (+ (- |phi___VERIFIER_assert__cond___140:734:2166:2479|)
                       (ite (<= (+ (- havoc) 5) 0) 1 0)) 0)
               (= (+ (- |phi___VERIFIER_assert__cond___141:733:2167:2480|) 1) 0)
               (= (+ (- |phi___VERIFIER_assert__cond___142:732:2168:2481|)
                       (ite (<= (+ (- havoc) 5) 0) 1 0)) 0)
               (= (+ (- |phi___VERIFIER_assert__cond___143:731:2169:2482|) 1) 0)
               (= (+ (- |phi___VERIFIER_assert__cond___144:730:2170:2483|)
                       (ite (<= (+ (- havoc) 5) 0) 1 0)) 0)
               (= (+ (- |phi___VERIFIER_assert__cond___145:729:2171:2484|) 1) 0)
               (= (+ (- |phi___VERIFIER_assert__cond___146:728:2172:2485|)
                       (ite (<= (+ (- havoc) 5) 0) 1 0)) 0)
               (= (+ (- |phi___VERIFIER_assert__cond___147:727:2173:2486|) 1) 0)
               (= (+ (- |phi___VERIFIER_assert__cond___148:726:2174:2487|)
                       (ite (<= (+ (- havoc) 5) 0) 1 0)) 0)
               (= (+ (- |phi___VERIFIER_assert__cond___149:725:2175:2488|) 1) 0)
               (= (+ (- |phi___VERIFIER_assert__cond___150:724:2176:2489|)
                       (ite (<= (+ (- havoc) 5) 0) 1 0)) 0)
               (= (+ (- |phi___VERIFIER_assert__cond___151:723:2177:2490|) 1) 0)
               (or (not (and (<= (- |K:719:759:2178:2491|) 0)
                               (<= |K:719:759:2178:2491| 0)))
                     (= (+ |__VERIFIER_assert__cond___135':711:760:2179:2492|
                             (- |phi___VERIFIER_assert__cond___135:739:2161:2474|)) 0))
               (or (not (<= (+ (- |K:719:759:2178:2491|) 1) 0))
                     (= (+ |__VERIFIER_assert__cond___135':711:760:2179:2492|
                             -1) 0))
               (or (not (and (<= (- |K:719:759:2178:2491|) 0)
                               (<= |K:719:759:2178:2491| 0)))
                     (= (+ (- __VERIFIER_assert__cond___134)
                             |__VERIFIER_assert__cond___134':710:761:2180:2493|) 0))
               (or (not (<= (+ (- |K:719:759:2178:2491|) 1) 0))
                     (= (+ |__VERIFIER_assert__cond___134':710:761:2180:2493|
                             -1) 0))
               (or (not (<= (- |K:719:759:2178:2491|) 0))
                     (<= (+ |__VERIFIER_assert__cond___135':711:760:2179:2492|
                              (- |phi___VERIFIER_assert__cond___135:739:2161:2474|)) 0))
               (or (not (<= (- |K:719:759:2178:2491|) 0))
                     (<= (+ (* 8 |main__i':616:763:2182:2495|)
                              |main__j':617:762:2181:2494|
                              (- |K:719:759:2178:2491|)
                              (- |phi_main__j:757:2143:2456|)
                              (* -8 |phi_main__i:758:2142:2455|)) 0))
               (or (not (<= (- |K:719:759:2178:2491|) 0))
                     (<= (+ |main__i':616:763:2182:2495|
                              (* 2 |K:719:759:2178:2491|)
                              (- |phi_main__i:758:2142:2455|)
                              (- (* |K:719:759:2178:2491| havoc))) 0))
               (or (not (<= (- |K:719:759:2178:2491|) 0))
                     (<= (+ (- |main__i':616:763:2182:2495|)
                              |phi_main__i:758:2142:2455|) 0))
               (or (and (= |K:719:759:2178:2491| 0)
                          (= (+ (- |__VERIFIER_assert__cond___135':711:760:2179:2492|)
                                  |phi___VERIFIER_assert__cond___135:739:2161:2474|) 0)
                          (= (+ __VERIFIER_assert__cond___134
                                  (- |__VERIFIER_assert__cond___134':710:761:2180:2493|)) 0)
                          (= (+ (- |main__j':617:762:2181:2494|)
                                  |phi_main__j:757:2143:2456|) 0)
                          (= (+ (- |main__i':616:763:2182:2495|)
                                  |phi_main__i:758:2142:2455|) 0))
                     (and (<= (+ (- |K:719:759:2178:2491|) 1) 0)
                            (<= (+ |phi_main__i:758:2142:2455| (- havoc) 1) 0)
                            (<= (+ (- |phi___VERIFIER_assert__cond___135:739:2161:2474|)
                                     1) 0)
                            (<= (- |phi_main__j:757:2143:2456|) 0)
                            (<= (+ (- |phi_main__i:758:2142:2455|) 1) 0)
                            (= (+ |__VERIFIER_assert__cond___134':710:761:2180:2493|
                                    -1) 0)
                            (= (+ |__VERIFIER_assert__cond___135':711:760:2179:2492|
                                    -1) 0)
                            (<= (+ |main__i':616:763:2182:2495| (- havoc) 1) 0)
                            (<= (+ |main__j':617:762:2181:2494| -7) 0)
                            (<= (- |main__j':617:762:2181:2494|) 0)
                            (<= (+ (- |main__i':616:763:2182:2495|) 1) 0)
                            (<= (+ (- |main__i':616:763:2182:2495|)
                                     (- |main__j':617:762:2181:2494|) 2) 0)))
               (<= (- |K:719:759:2178:2491|) 0)
               (< (- |__VERIFIER_assert__cond___135':711:760:2179:2492|) 0)
               (<= (- |main__j':617:762:2181:2494|) 0) (< (- havoc) 0)
               (< (- |main__i':616:763:2182:2495|) 0)
               (= (ite (< (+ (- |main__i':616:763:2182:2495|) -1) 0) 1 0) 0)))
(check-sat)
